p tw 121 18151 2 
1 3 
1 4 
1 5 
1 6 
1 7 
1 8 
1 9 
1 10 
1 11 
1 12 
1 14 
1 23 
1 28 
1 34 
1 42 
1 45 
1 51 
1 56 
1 59 
1 67 
1 77 
1 78 
1 82 
1 89 
1 90 
1 100 
1 107 
1 111 
1 120 
2 3 
2 4 
2 5 
2 6 
2 7 
2 8 
2 9 
2 10 
2 11 
2 12 
2 13 
2 24 
2 26 
2 35 
2 39 
2 46 
2 53 
2 57 
2 58 
2 68 
2 74 
2 79 
2 87 
2 90 
2 99 
2 101 
2 106 
2 112 
2 115 
3 4 
3 5 
3 6 
3 7 
3 8 
3 9 
3 10 
3 11 
3 14 
3 15 
3 25 
3 32 
3 36 
3 38 
3 47 
3 52 
3 58 
3 66 
3 69 
3 72 
3 80 
3 86 
3 91 
3 95 
3 100 
3 102 
3 112 
3 113 
4 5 
4 6 
4 7 
4 8 
4 9 
4 10 
4 11 
4 15 
4 21 
4 23 
4 26 
4 37 
4 40 
4 46 
4 48 
4 59 
4 61 
4 70 
4 71 
4 81 
4 85 
4 91 
4 92 
4 103 
4 108 
4 114 
4 121 
5 6 
5 7 
5 8 
5 9 
5 10 
5 11 
5 16 
5 18 
5 27 
5 30 
5 37 
5 38 
5 49 
5 55 
5 56 
5 60 
5 71 
5 75 
5 79 
5 82 
5 93 
5 94 
5 104 
5 109 
5 113 
5 115 
6 7 
6 8 
6 9 
6 10 
6 11 
6 17 
6 19 
6 28 
6 29 
6 39 
6 44 
6 49 
6 50 
6 61 
6 65 
6 67 
6 72 
6 80 
6 83 
6 94 
6 97 
6 101 
6 105 
6 114 
6 116 
7 8 
7 9 
7 10 
7 11 
7 18 
7 22 
7 29 
7 31 
7 40 
7 41 
7 51 
7 54 
7 57 
7 62 
7 69 
7 73 
7 83 
7 84 
7 92 
7 95 
7 104 
7 106 
7 111 
7 117 
8 9 
8 10 
8 11 
8 16 
8 19 
8 30 
8 33 
8 36 
8 41 
8 50 
8 52 
8 63 
8 64 
8 68 
8 74 
8 78 
8 85 
8 96 
8 98 
8 103 
8 107 
8 117 
8 118 
9 10 
9 11 
9 13 
9 20 
9 25 
9 31 
9 42 
9 43 
9 45 
9 53 
9 60 
9 64 
9 70 
9 75 
9 84 
9 86 
9 96 
9 97 
9 108 
9 110 
9 116 
9 119 
10 11 
10 17 
10 21 
10 24 
10 32 
10 34 
10 43 
10 48 
10 54 
10 63 
10 65 
10 73 
10 76 
10 87 
10 88 
10 93 
10 98 
10 102 
10 109 
10 119 
10 120 
11 20 
11 22 
11 27 
11 33 
11 35 
11 44 
11 47 
11 55 
11 62 
11 66 
11 76 
11 77 
11 81 
11 88 
11 89 
11 99 
11 105 
11 110 
11 118 
11 121 
12 13 
12 14 
12 15 
12 16 
12 17 
12 18 
12 19 
12 20 
12 21 
12 22 
12 23 
12 26 
12 34 
12 39 
12 45 
12 53 
12 56 
12 58 
12 67 
12 74 
12 78 
12 87 
12 89 
12 99 
12 100 
12 106 
12 111 
12 115 
13 14 
13 15 
13 16 
13 17 
13 18 
13 19 
13 20 
13 21 
13 22 
13 24 
13 25 
13 35 
13 43 
13 45 
13 46 
13 57 
13 60 
13 68 
13 70 
13 79 
13 84 
13 90 
13 96 
13 101 
13 110 
13 112 
13 116 
14 15 
14 16 
14 17 
14 18 
14 19 
14 20 
14 21 
14 22 
14 25 
14 28 
14 36 
14 42 
14 47 
14 51 
14 58 
14 59 
14 69 
14 77 
14 80 
14 82 
14 90 
14 91 
14 102 
14 107 
14 113 
14 120 
15 16 
15 17 
15 18 
15 19 
15 20 
15 21 
15 22 
15 26 
15 32 
15 37 
15 38 
15 48 
15 52 
15 59 
15 66 
15 70 
15 72 
15 81 
15 86 
15 92 
15 95 
15 100 
15 103 
15 112 
15 114 
16 17 
16 18 
16 19 
16 20 
16 21 
16 22 
16 27 
16 33 
16 36 
16 38 
16 49 
16 50 
16 60 
16 64 
16 68 
16 71 
16 78 
16 82 
16 93 
16 98 
16 103 
16 104 
16 115 
16 117 
17 18 
17 19 
17 20 
17 21 
17 22 
17 24 
17 28 
17 34 
17 39 
17 48 
17 50 
17 61 
17 63 
17 72 
17 73 
17 83 
17 88 
17 93 
17 94 
17 102 
17 105 
17 116 
17 119 
18 19 
18 20 
18 21 
18 22 
18 29 
18 30 
18 37 
18 40 
18 51 
18 55 
18 56 
18 62 
18 73 
18 75 
18 79 
18 84 
18 94 
18 95 
18 106 
18 109 
18 113 
18 117 
19 20 
19 21 
19 22 
19 29 
19 30 
19 41 
19 44 
19 49 
19 52 
19 63 
19 65 
19 67 
19 74 
19 80 
19 85 
19 96 
19 97 
19 101 
19 107 
19 114 
19 118 
20 21 
20 22 
20 27 
20 31 
20 35 
20 42 
20 47 
20 53 
20 62 
20 64 
20 75 
20 76 
20 81 
20 86 
20 89 
20 97 
20 105 
20 108 
20 118 
20 119 
21 22 
21 23 
21 32 
21 40 
21 43 
21 46 
21 54 
21 61 
21 65 
21 71 
21 76 
21 85 
21 87 
21 91 
21 98 
21 108 
21 109 
21 120 
21 121 
22 31 
22 33 
22 41 
22 44 
22 54 
22 55 
22 57 
22 66 
22 69 
22 77 
22 83 
22 88 
22 92 
22 99 
22 104 
22 110 
22 111 
22 121 
23 24 
23 25 
23 26 
23 27 
23 28 
23 29 
23 30 
23 31 
23 32 
23 33 
23 34 
23 40 
23 45 
23 46 
23 56 
23 61 
23 67 
23 71 
23 78 
23 85 
23 89 
23 91 
23 100 
23 108 
23 111 
23 121 
24 25 
24 26 
24 27 
24 28 
24 29 
24 30 
24 31 
24 32 
24 33 
24 34 
24 35 
24 46 
24 48 
24 57 
24 63 
24 68 
24 73 
24 79 
24 88 
24 90 
24 93 
24 101 
24 102 
24 112 
24 119 
25 26 
25 27 
25 28 
25 29 
25 30 
25 31 
25 32 
25 33 
25 36 
25 43 
25 45 
25 47 
25 58 
25 60 
25 69 
25 70 
25 80 
25 84 
25 91 
25 96 
25 102 
25 110 
25 113 
25 116 
26 27 
26 28 
26 29 
26 30 
26 31 
26 32 
26 33 
26 37 
26 39 
26 48 
26 53 
26 58 
26 59 
26 70 
26 74 
26 81 
26 87 
26 92 
26 99 
26 103 
26 106 
26 114 
26 115 
27 28 
27 29 
27 30 
27 31 
27 32 
27 33 
27 35 
27 38 
27 47 
27 49 
27 60 
27 62 
27 71 
27 76 
27 81 
27 82 
27 89 
27 93 
27 104 
27 105 
27 115 
27 118 
28 29 
28 30 
28 31 
28 32 
28 33 
28 39 
28 42 
28 50 
28 51 
28 59 
28 61 
28 72 
28 77 
28 82 
28 83 
28 90 
28 94 
28 105 
28 107 
28 116 
28 120 
29 30 
29 31 
29 32 
29 33 
29 40 
29 44 
29 49 
29 51 
29 62 
29 65 
29 67 
29 73 
29 80 
29 84 
29 95 
29 97 
29 101 
29 106 
29 114 
29 117 
30 31 
30 32 
30 33 
30 37 
30 41 
30 52 
30 55 
30 56 
30 63 
30 74 
30 75 
30 79 
30 85 
30 94 
30 96 
30 107 
30 109 
30 113 
30 118 
31 32 
31 33 
31 41 
31 42 
31 53 
31 54 
31 57 
31 64 
31 69 
31 75 
31 83 
31 86 
31 92 
31 97 
31 104 
31 108 
31 111 
31 119 
32 33 
32 38 
32 43 
32 52 
32 54 
32 65 
32 66 
32 72 
32 76 
32 86 
32 87 
32 95 
32 98 
32 100 
32 109 
32 112 
32 120 
33 36 
33 44 
33 50 
33 55 
33 64 
33 66 
33 68 
33 77 
33 78 
33 88 
33 98 
33 99 
33 103 
33 110 
33 117 
33 121 
34 35 
34 36 
34 37 
34 38 
34 39 
34 40 
34 41 
34 42 
34 43 
34 44 
34 45 
34 48 
34 56 
34 63 
34 67 
34 73 
34 78 
34 88 
34 89 
34 93 
34 100 
34 102 
34 111 
34 119 
35 36 
35 37 
35 38 
35 39 
35 40 
35 41 
35 42 
35 43 
35 44 
35 46 
35 47 
35 57 
35 62 
35 68 
35 76 
35 79 
35 81 
35 89 
35 90 
35 101 
35 105 
35 112 
35 118 
36 37 
36 38 
36 39 
36 40 
36 41 
36 42 
36 43 
36 44 
36 47 
36 50 
36 58 
36 64 
36 68 
36 69 
36 78 
36 80 
36 91 
36 98 
36 102 
36 103 
36 113 
36 117 
37 38 
37 39 
37 40 
37 41 
37 42 
37 43 
37 44 
37 48 
37 55 
37 56 
37 59 
37 70 
37 75 
37 79 
37 81 
37 92 
37 94 
37 103 
37 109 
37 113 
37 114 
38 39 
38 40 
38 41 
38 42 
38 43 
38 44 
38 49 
38 52 
38 60 
38 66 
38 71 
38 72 
38 82 
38 86 
38 93 
38 95 
38 100 
38 104 
38 112 
38 115 
39 40 
39 41 
39 42 
39 43 
39 44 
39 50 
39 53 
39 58 
39 61 
39 72 
39 74 
39 83 
39 87 
39 94 
39 99 
39 105 
39 106 
39 115 
39 116 
40 41 
40 42 
40 43 
40 44 
40 46 
40 51 
40 61 
40 62 
40 71 
40 73 
40 84 
40 85 
40 91 
40 95 
40 106 
40 108 
40 117 
40 121 
41 42 
41 43 
41 44 
41 52 
41 54 
41 57 
41 63 
41 69 
41 74 
41 83 
41 85 
41 92 
41 96 
41 104 
41 107 
41 111 
41 118 
42 43 
42 44 
42 51 
42 53 
42 59 
42 64 
42 75 
42 77 
42 82 
42 86 
42 90 
42 97 
42 107 
42 108 
42 119 
42 120 
43 44 
43 45 
43 54 
43 60 
43 65 
43 70 
43 76 
43 84 
43 87 
43 96 
43 98 
43 109 
43 110 
43 116 
43 120 
44 49 
44 55 
44 65 
44 66 
44 67 
44 77 
44 80 
44 88 
44 97 
44 99 
44 101 
44 110 
44 114 
44 121 
45 46 
45 47 
45 48 
45 49 
45 50 
45 51 
45 52 
45 53 
45 54 
45 55 
45 56 
45 60 
45 67 
45 70 
45 78 
45 84 
45 89 
45 96 
45 100 
45 110 
45 111 
45 116 
46 47 
46 48 
46 49 
46 50 
46 51 
46 52 
46 53 
46 54 
46 55 
46 57 
46 61 
46 68 
46 71 
46 79 
46 85 
46 90 
46 91 
46 101 
46 108 
46 112 
46 121 
47 48 
47 49 
47 50 
47 51 
47 52 
47 53 
47 54 
47 55 
47 58 
47 62 
47 69 
47 76 
47 80 
47 81 
47 89 
47 91 
47 102 
47 105 
47 113 
47 118 
48 49 
48 50 
48 51 
48 52 
48 53 
48 54 
48 55 
48 59 
48 63 
48 70 
48 73 
48 81 
48 88 
48 92 
48 93 
48 102 
48 103 
48 114 
48 119 
49 50 
49 51 
49 52 
49 53 
49 54 
49 55 
49 60 
49 65 
49 67 
49 71 
49 80 
49 82 
49 93 
49 97 
49 101 
49 104 
49 114 
49 115 
50 51 
50 52 
50 53 
50 54 
50 55 
50 61 
50 64 
50 68 
50 72 
50 78 
50 83 
50 94 
50 98 
50 103 
50 105 
50 116 
50 117 
51 52 
51 53 
51 54 
51 55 
51 59 
51 62 
51 73 
51 77 
51 82 
51 84 
51 90 
51 95 
51 106 
51 107 
51 117 
51 120 
52 53 
52 54 
52 55 
52 63 
52 66 
52 72 
52 74 
52 85 
52 86 
52 95 
52 96 
52 100 
52 107 
52 112 
52 118 
53 54 
53 55 
53 58 
53 64 
53 74 
53 75 
53 86 
53 87 
53 97 
53 99 
53 106 
53 108 
53 115 
53 119 
54 55 
54 57 
54 65 
54 69 
54 76 
54 83 
54 87 
54 92 
54 98 
54 104 
54 109 
54 111 
54 120 
55 56 
55 66 
55 75 
55 77 
55 79 
55 88 
55 94 
55 99 
55 109 
55 110 
55 113 
55 121 
56 57 
56 58 
56 59 
56 60 
56 61 
56 62 
56 63 
56 64 
56 65 
56 66 
56 67 
56 75 
56 78 
56 79 
56 89 
56 94 
56 100 
56 109 
56 111 
56 113 
57 58 
57 59 
57 60 
57 61 
57 62 
57 63 
57 64 
57 65 
57 66 
57 68 
57 69 
57 79 
57 83 
57 90 
57 92 
57 101 
57 104 
57 111 
57 112 
58 59 
58 60 
58 61 
58 62 
58 63 
58 64 
58 65 
58 66 
58 69 
58 74 
58 80 
58 87 
58 91 
58 99 
58 102 
58 106 
58 113 
58 115 
59 60 
59 61 
59 62 
59 63 
59 64 
59 65 
59 66 
59 70 
59 77 
59 81 
59 82 
59 90 
59 92 
59 103 
59 107 
59 114 
59 120 
60 61 
60 62 
60 63 
60 64 
60 65 
60 66 
60 70 
60 71 
60 82 
60 84 
60 93 
60 96 
60 104 
60 110 
60 115 
60 116 
61 62 
61 63 
61 64 
61 65 
61 66 
61 71 
61 72 
61 83 
61 85 
61 91 
61 94 
61 105 
61 108 
61 116 
61 121 
62 63 
62 64 
62 65 
62 66 
62 73 
62 76 
62 81 
62 84 
62 89 
62 95 
62 105 
62 106 
62 117 
62 118 
63 64 
63 65 
63 66 
63 73 
63 74 
63 85 
63 88 
63 93 
63 96 
63 102 
63 107 
63 118 
63 119 
64 65 
64 66 
64 68 
64 75 
64 78 
64 86 
64 97 
64 98 
64 103 
64 108 
64 117 
64 119 
65 66 
65 67 
65 76 
65 80 
65 87 
65 97 
65 98 
65 101 
65 109 
65 114 
65 120 
66 72 
66 77 
66 86 
66 88 
66 95 
66 99 
66 100 
66 110 
66 112 
66 121 
67 68 
67 69 
67 70 
67 71 
67 72 
67 73 
67 74 
67 75 
67 76 
67 77 
67 78 
67 80 
67 89 
67 97 
67 100 
67 101 
67 111 
67 114 
68 69 
68 70 
68 71 
68 72 
68 73 
68 74 
68 75 
68 76 
68 77 
68 78 
68 79 
68 90 
68 98 
68 101 
68 103 
68 112 
68 117 
69 70 
69 71 
69 72 
69 73 
69 74 
69 75 
69 76 
69 77 
69 80 
69 83 
69 91 
69 92 
69 102 
69 104 
69 111 
69 113 
70 71 
70 72 
70 73 
70 74 
70 75 
70 76 
70 77 
70 81 
70 84 
70 92 
70 96 
70 103 
70 110 
70 114 
70 116 
71 72 
71 73 
71 74 
71 75 
71 76 
71 77 
71 82 
71 85 
71 91 
71 93 
71 104 
71 108 
71 115 
71 121 
72 73 
72 74 
72 75 
72 76 
72 77 
72 83 
72 86 
72 94 
72 95 
72 100 
72 105 
72 112 
72 116 
73 74 
73 75 
73 76 
73 77 
73 84 
73 88 
73 93 
73 95 
73 102 
73 106 
73 117 
73 119 
74 75 
74 76 
74 77 
74 85 
74 87 
74 96 
74 99 
74 106 
74 107 
74 115 
74 118 
75 76 
75 77 
75 79 
75 86 
75 94 
75 97 
75 108 
75 109 
75 113 
75 119 
76 77 
76 81 
76 87 
76 89 
76 98 
76 105 
76 109 
76 118 
76 120 
77 82 
77 88 
77 90 
77 99 
77 107 
77 110 
77 120 
77 121 
78 79 
78 80 
78 81 
78 82 
78 83 
78 84 
78 85 
78 86 
78 87 
78 88 
78 89 
78 98 
78 100 
78 103 
78 111 
78 117 
79 80 
79 81 
79 82 
79 83 
79 84 
79 85 
79 86 
79 87 
79 88 
79 90 
79 94 
79 101 
79 109 
79 112 
79 113 
80 81 
80 82 
80 83 
80 84 
80 85 
80 86 
80 87 
80 88 
80 91 
80 97 
80 101 
80 102 
80 113 
80 114 
81 82 
81 83 
81 84 
81 85 
81 86 
81 87 
81 88 
81 89 
81 92 
81 103 
81 105 
81 114 
81 118 
82 83 
82 84 
82 85 
82 86 
82 87 
82 88 
82 90 
82 93 
82 104 
82 107 
82 115 
82 120 
83 84 
83 85 
83 86 
83 87 
83 88 
83 92 
83 94 
83 104 
83 105 
83 111 
83 116 
84 85 
84 86 
84 87 
84 88 
84 95 
84 96 
84 106 
84 110 
84 116 
84 117 
85 86 
85 87 
85 88 
85 91 
85 96 
85 107 
85 108 
85 118 
85 121 
86 87 
86 88 
86 95 
86 97 
86 100 
86 108 
86 112 
86 119 
87 88 
87 98 
87 99 
87 106 
87 109 
87 115 
87 120 
88 93 
88 99 
88 102 
88 110 
88 119 
88 121 
89 90 
89 91 
89 92 
89 93 
89 94 
89 95 
89 96 
89 97 
89 98 
89 99 
89 100 
89 105 
89 111 
89 118 
90 91 
90 92 
90 93 
90 94 
90 95 
90 96 
90 97 
90 98 
90 99 
90 101 
90 107 
90 112 
90 120 
91 92 
91 93 
91 94 
91 95 
91 96 
91 97 
91 98 
91 99 
91 102 
91 108 
91 113 
91 121 
92 93 
92 94 
92 95 
92 96 
92 97 
92 98 
92 99 
92 103 
92 104 
92 111 
92 114 
93 94 
93 95 
93 96 
93 97 
93 98 
93 99 
93 102 
93 104 
93 115 
93 119 
94 95 
94 96 
94 97 
94 98 
94 99 
94 105 
94 109 
94 113 
94 116 
95 96 
95 97 
95 98 
95 99 
95 100 
95 106 
95 112 
95 117 
96 97 
96 98 
96 99 
96 107 
96 110 
96 116 
96 118 
97 98 
97 99 
97 101 
97 108 
97 114 
97 119 
98 99 
98 103 
98 109 
98 117 
98 120 
99 106 
99 110 
99 115 
99 121 
100 101 
100 102 
100 103 
100 104 
100 105 
100 106 
100 107 
100 108 
100 109 
100 110 
100 111 
100 112 
101 102 
101 103 
101 104 
101 105 
101 106 
101 107 
101 108 
101 109 
101 110 
101 112 
101 114 
102 103 
102 104 
102 105 
102 106 
102 107 
102 108 
102 109 
102 110 
102 113 
102 119 
103 104 
103 105 
103 106 
103 107 
103 108 
103 109 
103 110 
103 114 
103 117 
104 105 
104 106 
104 107 
104 108 
104 109 
104 110 
104 111 
104 115 
105 106 
105 107 
105 108 
105 109 
105 110 
105 116 
105 118 
106 107 
106 108 
106 109 
106 110 
106 115 
106 117 
107 108 
107 109 
107 110 
107 118 
107 120 
108 109 
108 110 
108 119 
108 121 
109 110 
109 113 
109 120 
110 116 
110 121 
111 112 
111 113 
111 114 
111 115 
111 116 
111 117 
111 118 
111 119 
111 120 
111 121 
112 113 
112 114 
112 115 
112 116 
112 117 
112 118 
112 119 
112 120 
112 121 
113 114 
113 115 
113 116 
113 117 
113 118 
113 119 
113 120 
113 121 
114 115 
114 116 
114 117 
114 118 
114 119 
114 120 
114 121 
115 116 
115 117 
115 118 
115 119 
115 120 
115 121 
116 117 
116 118 
116 119 
116 120 
116 121 
117 118 
117 119 
117 120 
117 121 
118 119 
118 120 
118 121 
119 120 
119 121 
120 121 
